teacher = { t0, t1, t2 };
teacher_subject = [ m0, m1, m2 ];

SLOTS = 1..14;
slot =
	[|  8, 4
	 |  8, 2
	 |  8, 1
	 |  9, 1
         | 10, 2
         | 10, 1
         | 11, 1
	 | 14, 4
	 | 14, 2
	 | 14, 1
	 | 15, 1
	 | 16, 2
	 | 16, 1
	 | 17, 1
|];
overlap =
	[| 0, 1, 1, 1, 1, 1, 1, 0, 0, 0, 0, 0, 0, 0,
	 | 1, 0, 0, 1, 1, 0, 0, 0, 0, 0, 0, 0, 0, 0,
	 | 1, 0, 0, 0, 0, 1, 1, 0, 0, 0, 0, 0, 0, 0,
	 | 1, 1, 0, 0, 0, 0, 0, 0, 0, 0, 0, 0, 0, 0,
	 | 1, 1, 0, 0, 0, 0, 0, 0, 0, 0, 0, 0, 0, 0,
	 | 1, 0, 1, 0, 0, 0, 0, 0, 0, 0, 0, 0, 0, 0,
	 | 1, 0, 1, 0, 0, 0, 0, 0, 0, 0, 0, 0, 0, 0,
	 | 0, 0, 0, 0, 0, 0, 0, 0, 1, 1, 1, 1, 1, 1,
	 | 0, 0, 0, 0, 0, 0, 0, 1, 0, 0, 1, 1, 0, 0,
	 | 0, 0, 0, 0, 0, 0, 0, 1, 0, 0, 0, 0, 1, 1,
	 | 0, 0, 0, 0, 0, 0, 0, 1, 1, 0, 0, 0, 0, 0,
	 | 0, 0, 0, 0, 0, 0, 0, 1, 1, 0, 0, 0, 0, 0,
	 | 0, 0, 0, 0, 0, 0, 0, 1, 0, 1, 0, 0, 0, 0,
	 | 0, 0, 0, 0, 0, 0, 0, 1, 0, 1, 0, 0, 0, 0, ]

DAY_TYPES = 1..2;
day_slot_valid =
	[| true, true, true, true, true, true, true, true, true, true, true, true, true, true, false	% Normal weekday
|];
DAYS = 1..1;
day = [ 1 ];
 
level = { L_2, L_1, L_1_latin, L_0 };
subject = { m0, m1, m2 };
DURATIONS = 1..6;
duration_types =
	[| 200, 100, 0, 0	% Math L_2
	 | 200, 200, 0, 0	% Math L_1 and L_1_latin
	 | 200, 200, 100, 0	% Math L_0
	 | 100, 100, 0, 0	% French all levels
	 | 100, 0, 0, 0		% Latin l_1
	 | 0, 0, 0, 0		% Dummy
|];
level_subject_duration = 
	[| 1, 4, 6	% L_2
	 | 2, 4, 6	% L_1
	 | 2, 4, 5	% L_1_latin
	 | 3, 4, 6	% L_0
|];
level_classes = [ 2, 1, 1, 2 ];
%level_classes = [ 1, 1, 0, 1 ];

